% Logging successfully configured
=====UNKNOWN=====
% time elapsed: 1800.06 s
%%%mzn-stat: initTime=0.049928124
%%%mzn-stat: nodes=1689174
%%%mzn-stat: restarts=0
%%%mzn-stat: peakDepth=86
%%%mzn-stat: solveTime=1798.679401988
%%%mzn-stat: variables=3218
%%%mzn-stat: propagators=2718
%%%mzn-stat: failures=1261045
%%%mzn-stat: propagations=32579844
%%%mzn-stat: nogoods=1261045
%%%mzn-stat: numAtomicConstraintsPropagated=0
%%%mzn-stat: circuitNumber1PropagationsTotal=5232313
%%%mzn-stat: circuitNumber1CircuitConflicts=199119
%%%mzn-stat: circuitNumber1AlldiffConflicts=213977
%%%mzn-stat: circuitNumber1TotalFixedEdgesAtConflict=36774889
%%%mzn-stat: circuitNumber1NumberOfConflicts=413096
%%%mzn-stat: circuitNumber1GacPrunings=14789691
%%%mzn-stat: circuitNumber1PropagationsThatGacPruned=3001004
%%%mzn-stat: circuitNumber1TotalPruningHallSetSize=44030013
%%%mzn-stat: circuitNumber1NumberOfPruningExplanations=14789691
%%%mzn-stat: circuitNumber1MaxPruningHallSetSize=25
%%%mzn-stat: circuitNumber1TotalSccSizeAtPruning=18876825
%%%mzn-stat: circuitNumber1NumberOfSccPruningCalls=3001004
%%%mzn-stat: circuitNumber1TotalVarsInvolvedInPruning=11497243
%%%mzn-stat: circuitNumber1MaxValuesPrunedFromSingleVar=8
%%%mzn-stat: circuitNumber1HallCircuitChecks=10337723
%%%mzn-stat: circuitNumber1HallCircuitPrunings=409264
%%%mzn-stat: circuitNumber1CircuitPreventPrunings=2162518
%%%mzn-stat: AverageConflictSize=20.429937868989608
%%%mzn-stat: NumUnitNogoodsLearned=0
%%%mzn-stat: AverageLearnedNogoodLength=57.948224686668595
%%%mzn-stat: AverageBacktrackAmount=0
%%%mzn-stat: AverageLbd=38.74800740655567
%%%mzn-stat: 2AutonomousSearchNumBackupCalled=0
%%%mzn-stat: 2AutonomousSearchNumPredicatesRemoved=0
%%%mzn-stat: 2AutonomousSearchNumCalls=0
%%%mzn-stat: 2AutonomousSearchNumPredicatesAdded=1552
%%%mzn-stat: 2AutonomousSearchAverageSizeOfHeap=0
%%%mzn-stat: 2AutonomousSearchNumAssignedPredicatesEncountered=0
%%%mzn-stat-end
